n_res = 4;
rc = [ 12, 12, 12, 12 ];
n_tasks = 30;
d = [ 10, 8, 10, 2, 9, 9, 2, 9, 10, 10, 8, 9, 9, 3, 6, 6, 10, 9, 2, 4, 10, 1, 9, 5, 2, 8, 8, 1, 8, 1 ];
rr = [| 9, 9, 4, 4, 5, 0, 1, 0, 0, 3, 0, 0, 0, 0, 1, 7, 9, 0, 0, 0, 0, 3, 4, 0, 0, 0, 1, 4, 4, 0
      | 0, 4, 6, 0, 0, 10, 0, 0, 5, 3, 9, 5, 0, 0, 0, 0, 5, 0, 0, 0, 5, 2, 0, 0, 0, 7, 3, 2, 7, 10
      | 0, 10, 10, 0, 0, 6, 6, 4, 0, 0, 0, 6, 8, 8, 0, 6, 0, 10, 5, 0, 0, 1, 0, 5, 0, 0, 3, 0, 2, 4
      | 0, 0, 0, 0, 5, 0, 0, 7, 0, 0, 1, 0, 0, 0, 1, 2, 0, 4, 6, 5, 10, 4, 3, 5, 3, 0, 0, 0, 6, 7 |];
suc = [ { 2 }, 
        { 1 }, 
        { 4 }, 
        { 3 }, 
        { 6 }, 
        { 5 }, 
        { 8 }, 
        { 7 }, 
        { 10 }, 
        { 9 }, 
        { 12 }, 
        { 11 }, 
        { 14 }, 
        { 13 }, 
        { 16 }, 
        { 15 }, 
        { 18 }, 
        { 17 }, 
        { 20 }, 
        { 19 }, 
        { 22 }, 
        { 21 }, 
        { 24 }, 
        { 23 }, 
        { 26 }, 
        { 25 }, 
        { 28 }, 
        { 27 }, 
        { 30 }, 
        { 29 }]; 
